c description: Graph 3-Colorability of graph: 
c generator: CNFgen (0.9.0)
c copyright: (C) 2012-2020 Massimo Lauria <massimo.lauria@uniroma1.it>
c url: https://massimolauria.net/cnfgen
c
p cnf 60 260
1 2 3 0
-1 -2 0
-1 -3 0
-2 -3 0
4 5 6 0
-4 -5 0
-4 -6 0
-5 -6 0
7 8 9 0
-7 -8 0
-7 -9 0
-8 -9 0
10 11 12 0
-10 -11 0
-10 -12 0
-11 -12 0
13 14 15 0
-13 -14 0
-13 -15 0
-14 -15 0
16 17 18 0
-16 -17 0
-16 -18 0
-17 -18 0
19 20 21 0
-19 -20 0
-19 -21 0
-20 -21 0
22 23 24 0
-22 -23 0
-22 -24 0
-23 -24 0
25 26 27 0
-25 -26 0
-25 -27 0
-26 -27 0
28 29 30 0
-28 -29 0
-28 -30 0
-29 -30 0
31 32 33 0
-31 -32 0
-31 -33 0
-32 -33 0
34 35 36 0
-34 -35 0
-34 -36 0
-35 -36 0
37 38 39 0
-37 -38 0
-37 -39 0
-38 -39 0
40 41 42 0
-40 -41 0
-40 -42 0
-41 -42 0
43 44 45 0
-43 -44 0
-43 -45 0
-44 -45 0
46 47 48 0
-46 -47 0
-46 -48 0
-47 -48 0
49 50 51 0
-49 -50 0
-49 -51 0
-50 -51 0
52 53 54 0
-52 -53 0
-52 -54 0
-53 -54 0
55 56 57 0
-55 -56 0
-55 -57 0
-56 -57 0
58 59 60 0
-58 -59 0
-58 -60 0
-59 -60 0
-1 -22 0
-2 -23 0
-3 -24 0
-1 -31 0
-2 -32 0
-3 -33 0
-1 -43 0
-2 -44 0
-3 -45 0
-1 -52 0
-2 -53 0
-3 -54 0
-1 -55 0
-2 -56 0
-3 -57 0
-4 -10 0
-5 -11 0
-6 -12 0
-4 -46 0
-5 -47 0
-6 -48 0
-4 -55 0
-5 -56 0
-6 -57 0
-4 -58 0
-5 -59 0
-6 -60 0
-7 -10 0
-8 -11 0
-9 -12 0
-7 -25 0
-8 -26 0
-9 -27 0
-7 -43 0
-8 -44 0
-9 -45 0
-7 -55 0
-8 -56 0
-9 -57 0
-10 -19 0
-11 -20 0
-12 -21 0
-10 -22 0
-11 -23 0
-12 -24 0
-10 -40 0
-11 -41 0
-12 -42 0
-13 -19 0
-14 -20 0
-15 -21 0
-13 -22 0
-14 -23 0
-15 -24 0
-13 -28 0
-14 -29 0
-15 -30 0
-13 -31 0
-14 -32 0
-15 -33 0
-13 -34 0
-14 -35 0
-15 -36 0
-13 -43 0
-14 -44 0
-15 -45 0
-13 -46 0
-14 -47 0
-15 -48 0
-13 -49 0
-14 -50 0
-15 -51 0
-13 -52 0
-14 -53 0
-15 -54 0
-13 -58 0
-14 -59 0
-15 -60 0
-16 -19 0
-17 -20 0
-18 -21 0
-16 -22 0
-17 -23 0
-18 -24 0
-16 -25 0
-17 -26 0
-18 -27 0
-16 -37 0
-17 -38 0
-18 -39 0
-16 -40 0
-17 -41 0
-18 -42 0
-16 -46 0
-17 -47 0
-18 -48 0
-16 -52 0
-17 -53 0
-18 -54 0
-19 -22 0
-20 -23 0
-21 -24 0
-19 -25 0
-20 -26 0
-21 -27 0
-19 -28 0
-20 -29 0
-21 -30 0
-19 -31 0
-20 -32 0
-21 -33 0
-19 -43 0
-20 -44 0
-21 -45 0
-22 -34 0
-23 -35 0
-24 -36 0
-22 -40 0
-23 -41 0
-24 -42 0
-25 -34 0
-26 -35 0
-27 -36 0
-28 -31 0
-29 -32 0
-30 -33 0
-28 -43 0
-29 -44 0
-30 -45 0
-31 -34 0
-32 -35 0
-33 -36 0
-31 -58 0
-32 -59 0
-33 -60 0
-34 -43 0
-35 -44 0
-36 -45 0
-34 -49 0
-35 -50 0
-36 -51 0
-34 -52 0
-35 -53 0
-36 -54 0
-34 -55 0
-35 -56 0
-36 -57 0
-37 -40 0
-38 -41 0
-39 -42 0
-37 -52 0
-38 -53 0
-39 -54 0
-40 -43 0
-41 -44 0
-42 -45 0
-43 -46 0
-44 -47 0
-45 -48 0
-43 -49 0
-44 -50 0
-45 -51 0
-43 -52 0
-44 -53 0
-45 -54 0
-43 -55 0
-44 -56 0
-45 -57 0
-43 -58 0
-44 -59 0
-45 -60 0
-46 -58 0
-47 -59 0
-48 -60 0
-49 -55 0
-50 -56 0
-51 -57 0
-49 -58 0
-50 -59 0
-51 -60 0